NAME: tsp10_4
COMMENT: 10-tsp problem (Padberg/Rinaldi)
TYPE: TSP
DIMENSION: 10
EDGE_WEIGHT_TYPE : EUC_2D
NODE_COORD_SECTION
1 10 15
2 25 14
3 0 10
4 17 20
5 31 40
6 34 23
7 8 30
8 39 39
9 8 7
10 4 13
